32      4       
10      10      10      10      
0       0       0       0       0       17      2       5       6       8       10      11      12      13      23      24      25      26      27      28      29      30      31      
6       1       0       1       1       1       3       
9       0       1       6       7       2       4       17      
8       6       4       5       0       3       7       15      16      
7       5       4       3       0       2       15      22      
7       0       3       2       1       2       20      21      
7       0       4       6       5       1       9       
5       3       0       4       1       1       9       
10      2       5       4       0       1       14      
9       3       4       6       0       1       19      
10      0       4       5       2       1       18      
3       5       0       4       5       1       14      
7       4       4       0       6       1       14      
10      2       3       0       5       1       32      
7       4       4       0       5       1       32      
2       4       0       6       5       1       32      
3       2       0       6       3       1       32      
5       5       5       1       0       1       32      
1       5       2       0       6       1       32      
3       0       2       3       2       1       32      
2       8       4       0       8       1       32      
6       3       0       3       4       1       32      
4       0       6       5       8       1       32      
5       7       2       0       3       1       32      
6       0       6       3       4       1       32      
8       2       0       4       3       1       32      
5       2       5       0       4       1       32      
9       0       5       2       2       1       32      
8       7       0       3       2       1       32      
8       0       5       5       4       1       32      
5       4       6       5       0       1       32      
0       0       0       0       0       0       
